unknown
(model
; cardinality of BoundSet is 1
(declare-sort BoundSet 0)
; rep: @uc_BoundSet_0
; cardinality of UnboundSet is 1
(declare-sort UnboundSet 0)
(declare-fun groundTerm_2 () UnboundSet)
(define-fun IsOutside ((BOUND_VARIABLE_405 BoundSet)) Bool true)
(define-fun IsSmall ((BOUND_VARIABLE_405 BoundSet)) Bool true)
(define-fun HasShortBrownHair ((BOUND_VARIABLE_405 BoundSet)) Bool false)
)
sat
(model
; cardinality of BoundSet is 1
(declare-sort BoundSet 0)
; rep: @uc_BoundSet_0
; cardinality of UnboundSet is 1
(declare-sort UnboundSet 0)
(declare-fun groundTerm_5 () UnboundSet)
(define-fun IsOutside ((BOUND_VARIABLE_415 BoundSet)) Bool true)
(define-fun IsSmall ((BOUND_VARIABLE_415 BoundSet)) Bool true)
(define-fun HasShortBrownHair ((BOUND_VARIABLE_415 BoundSet)) Bool false)
)
